Problem:    problem3
Rows:       44
Columns:    25
Non-zeros:  189
Status:     OPTIMAL
Objective:  zeta = -1682.027211 (MAXimum)

   No.   Row name   St   Activity     Lower bound   Upper bound    Marginal
------ ------------ -- ------------- ------------- ------------- -------------
     1 z1           NL             0            -0                     -1.1613 
     2 z2           B         232.18            -0               
     3 z3           NL             0            -0                    -3.62734 
     4 z4           B        233.572            -0               
     5 z5           NL             0            -0                    -2.12793 
     6 z6           NL             0            -0                   -0.416614 
     7 z7           NL             0            -0                    -2.02504 
     8 z8           NL             0            -0                  -0.0927109 
     9 z9           NL             0            -0                    -1.08398 
    10 z10          NL             0            -0                    -3.36821 
    11 z11          NL             0            -0                    -5.20404 
    12 z12          NL             0            -0                   -0.370713 
    13 z13          NL             0            -0                     -1.1872 
    14 z14          NL             0            -0                    -2.34253 
    15 z15          NL             0            -0                    -2.79562 
    16 z16          NL             0            -0                    -1.95158 
    17 z17          NL             0            -0                    -5.04281 
    18 z18          NL             0            -0                   -0.752637 
    19 z19          NL             0            -0                    -4.39367 
    20 z20          B        136.724            -0               
    21 z21          NL             0            -0                    -3.56253 
    22 z22          B        1147.92            -0               
    23 z23          B        45.9686            -0               
    24 z24          B        273.548            -0               
    25 z25          NL             0            -0                    -7.78887 
    26 minA         B           3500          1500               
    27 minB         NL          4500          4500                   -0.295466 
    28 minC         B           1500          1000               
    29 minD         NL           500           500                   -0.201388 
    30 maxA         NU          3500                        3500    0.00615995 
    31 maxB         B           4500                        6500 
    32 maxC         B           1500                        3000 
    33 maxD         B            500                        2500 
    34 minTech      B           3000            -0               
    35 minFin       B           3000            -0               
    36 minPC        B              0            -0               
    37 minAuto      B           4000            -0               
    38 maxTech      NU          3000                        3000      0.094668 
    39 maxFin       B           3000                        4000 
    40 maxPC        B              0                        5000 
    41 maxAuto      B           4000                        7000 
    42 minEco       NL          9000          9000                   -0.258646 
    43 totalToSpend NU         10000                       10000      0.177051 
    44 zeta         B       -1682.03                             

   No. Column name  St   Activity     Lower bound   Upper bound    Marginal
------ ------------ -- ------------- ------------- ------------- -------------
     1 x1           B              0                             
     2 x2           B         232.18                             
     3 x3           B              0                             
     4 x4           B        233.572                             
     5 x5           B              0                             
     6 x6           B              0                             
     7 x7           B              0                             
     8 x8           B              0                             
     9 x9           B              0                             
    10 x10          B              0                             
    11 x11          B              0                             
    12 x12          B              0                             
    13 x13          B              0                             
    14 x14          B              0                             
    15 x15          B              0                             
    16 x16          B              0                             
    17 x17          B              0                             
    18 x18          B              0                             
    19 x19          B              0                             
    20 x20          B        136.724                             
    21 x21          B              0                             
    22 x22          B        1147.92                             
    23 x23          B        45.9686                             
    24 x24          B        273.548                             
    25 x25          B              0                             

Karush-Kuhn-Tucker optimality conditions:

KKT.PE: max.abs.err = 2.27e-13 on row 44
        max.rel.err = 6.76e-17 on row 44
        High quality

KKT.PB: max.abs.err = 0.00e+00 on row 0
        max.rel.err = 0.00e+00 on row 0
        High quality

KKT.DE: max.abs.err = 1.78e-15 on column 3
        max.rel.err = 1.31e-16 on column 19
        High quality

KKT.DB: max.abs.err = 0.00e+00 on row 0
        max.rel.err = 0.00e+00 on row 0
        High quality

End of output
